
Gurobi 10.0.1 (win64) logging started Wed May  3 13:32:12 2023

Set parameter LogFile to value "C:\Users\tim87\Desktop\cornell\spring23\Discrete Optimization\final\Capacity-expansion-in-the-college-admission-problem\Experiments_n1=100\m.facility_loc_st100un7fund-2.gurobi-log.txt"
Gurobi Optimizer version 10.0.1 build v10.0.1rc0 (win64)

CPU model: 11th Gen Intel(R) Core(TM) i7-1180G7 @ 1.30GHz, instruction set [SSE2|AVX|AVX2|AVX512]
Thread count: 4 physical cores, 8 logical processors, using up to 1 threads

Optimize a model with 108 rows, 707 columns and 1414 nonzeros
Model fingerprint: 0xee51746b
Coefficient statistics:
  Matrix range     [1e+00, 1e+00]
  Objective range  [1e+00, 6e+00]
  Bounds range     [1e+00, 2e+00]
  RHS range        [1e+00, 3e+01]
Iteration    Objective       Primal Inf.    Dual Inf.      Time
       0    0.0000000e+00   3.000000e+00   0.000000e+00      0s
       1    1.0000000e+00   0.000000e+00   0.000000e+00      0s

Solved in 1 iterations and 0.00 seconds (0.00 work units)
Optimal objective  1.000000000e+00

Statistics for modelfacility_loc:
  Linear constraint matrix    : 108 Constrs, 707 Vars, 1414 NZs
  Matrix coefficient range    : [ 1, 1 ]
  Objective coefficient range : [ 1, 6 ]
  Variable bound range        : [ 1, 2 ]
  RHS coefficient range       : [ 1, 25 ]
Runtime: 0.003999948501586914

Gurobi 10.0.1 (win64) logging started Wed May  3 13:36:00 2023

Set parameter LogFile to value "C:\Users\tim87\Desktop\cornell\spring23\Discrete Optimization\final\Capacity-expansion-in-the-college-admission-problem\Experiments_n1=100\m.facility_loc_st100un7fund-2.gurobi-log.txt"
Gurobi Optimizer version 10.0.1 build v10.0.1rc0 (win64)

CPU model: 11th Gen Intel(R) Core(TM) i7-1180G7 @ 1.30GHz, instruction set [SSE2|AVX|AVX2|AVX512]
Thread count: 4 physical cores, 8 logical processors, using up to 1 threads

Optimize a model with 108 rows, 707 columns and 1414 nonzeros
Model fingerprint: 0x8909e44e
Coefficient statistics:
  Matrix range     [1e+00, 1e+00]
  Objective range  [1e+00, 6e+00]
  Bounds range     [1e+00, 2e+00]
  RHS range        [1e+00, 2e+01]
Iteration    Objective       Primal Inf.    Dual Inf.      Time
       0    0.0000000e+00   1.000000e+00   0.000000e+00      0s
       1    0.0000000e+00   0.000000e+00   0.000000e+00      0s

Solved in 1 iterations and 0.00 seconds (0.00 work units)
Optimal objective  0.000000000e+00

Statistics for modelfacility_loc:
  Linear constraint matrix    : 108 Constrs, 707 Vars, 1414 NZs
  Matrix coefficient range    : [ 1, 1 ]
  Objective coefficient range : [ 1, 6 ]
  Variable bound range        : [ 1, 2 ]
  RHS coefficient range       : [ 1, 23 ]
Runtime: 0.003999948501586914

Gurobi 10.0.1 (win64) logging started Wed May  3 13:36:30 2023

Set parameter LogFile to value "C:\Users\tim87\Desktop\cornell\spring23\Discrete Optimization\final\Capacity-expansion-in-the-college-admission-problem\Experiments_n1=100\m.facility_loc_st100un7fund-2.gurobi-log.txt"
Gurobi Optimizer version 10.0.1 build v10.0.1rc0 (win64)

CPU model: 11th Gen Intel(R) Core(TM) i7-1180G7 @ 1.30GHz, instruction set [SSE2|AVX|AVX2|AVX512]
Thread count: 4 physical cores, 8 logical processors, using up to 1 threads

Optimize a model with 108 rows, 707 columns and 1414 nonzeros
Model fingerprint: 0x44873a67
Coefficient statistics:
  Matrix range     [1e+00, 1e+00]
  Objective range  [1e+00, 6e+00]
  Bounds range     [1e+00, 2e+00]
  RHS range        [1e+00, 3e+01]
Iteration    Objective       Primal Inf.    Dual Inf.      Time
       0    0.0000000e+00   4.000000e+00   0.000000e+00      0s
       2    1.0000000e+00   0.000000e+00   0.000000e+00      0s

Solved in 2 iterations and 0.01 seconds (0.00 work units)
Optimal objective  1.000000000e+00

Statistics for modelfacility_loc:
  Linear constraint matrix    : 108 Constrs, 707 Vars, 1414 NZs
  Matrix coefficient range    : [ 1, 1 ]
  Objective coefficient range : [ 1, 6 ]
  Variable bound range        : [ 1, 2 ]
  RHS coefficient range       : [ 1, 32 ]
Runtime: 0.006000041961669922

Gurobi 10.0.1 (win64) logging started Wed May  3 13:40:05 2023

Set parameter LogFile to value "C:\Users\tim87\Desktop\cornell\spring23\Discrete Optimization\final\Capacity-expansion-in-the-college-admission-problem\Experiments_n1=100\m.facility_loc_st100un7fund-2.gurobi-log.txt"
Gurobi Optimizer version 10.0.1 build v10.0.1rc0 (win64)

CPU model: 11th Gen Intel(R) Core(TM) i7-1180G7 @ 1.30GHz, instruction set [SSE2|AVX|AVX2|AVX512]
Thread count: 4 physical cores, 8 logical processors, using up to 1 threads

Optimize a model with 108 rows, 707 columns and 1414 nonzeros
Model fingerprint: 0x461a9593
Coefficient statistics:
  Matrix range     [1e+00, 1e+00]
  Objective range  [1e+00, 6e+00]
  Bounds range     [1e+00, 2e+00]
  RHS range        [1e+00, 2e+01]
Iteration    Objective       Primal Inf.    Dual Inf.      Time
       0    0.0000000e+00   2.000000e+00   0.000000e+00      0s
       1    0.0000000e+00   0.000000e+00   0.000000e+00      0s

Solved in 1 iterations and 0.00 seconds (0.00 work units)
Optimal objective  0.000000000e+00

Statistics for modelfacility_loc:
  Linear constraint matrix    : 108 Constrs, 707 Vars, 1414 NZs
  Matrix coefficient range    : [ 1, 1 ]
  Objective coefficient range : [ 1, 6 ]
  Variable bound range        : [ 1, 2 ]
  RHS coefficient range       : [ 1, 23 ]
Runtime: 0.005000114440917969

Gurobi 10.0.1 (win64) logging started Wed May  3 14:06:10 2023

Set parameter LogFile to value "C:\Users\tim87\Desktop\cornell\spring23\Discrete Optimization\final\Capacity-expansion-in-the-college-admission-problem\Experiments_n1=100\m.facility_loc_st100un7fund-2.gurobi-log.txt"
Gurobi Optimizer version 10.0.1 build v10.0.1rc0 (win64)

CPU model: 11th Gen Intel(R) Core(TM) i7-1180G7 @ 1.30GHz, instruction set [SSE2|AVX|AVX2|AVX512]
Thread count: 4 physical cores, 8 logical processors, using up to 1 threads

Optimize a model with 108 rows, 707 columns and 1414 nonzeros
Model fingerprint: 0x8fdd96e9
Coefficient statistics:
  Matrix range     [1e+00, 1e+00]
  Objective range  [1e+00, 6e+00]
  Bounds range     [1e+00, 2e+00]
  RHS range        [1e+00, 3e+01]
Iteration    Objective       Primal Inf.    Dual Inf.      Time
       0    0.0000000e+00   4.000000e+00   0.000000e+00      0s
       2    0.0000000e+00   0.000000e+00   0.000000e+00      0s

Solved in 2 iterations and 0.01 seconds (0.00 work units)
Optimal objective  0.000000000e+00

Statistics for modelfacility_loc:
  Linear constraint matrix    : 108 Constrs, 707 Vars, 1414 NZs
  Matrix coefficient range    : [ 1, 1 ]
  Objective coefficient range : [ 1, 6 ]
  Variable bound range        : [ 1, 2 ]
  RHS coefficient range       : [ 1, 28 ]
Runtime: 0.017999887466430664

Gurobi 10.0.1 (win64) logging started Wed May  3 14:07:20 2023

Set parameter LogFile to value "C:\Users\tim87\Desktop\cornell\spring23\Discrete Optimization\final\Capacity-expansion-in-the-college-admission-problem\Experiments_n1=100\m.facility_loc_st100un7fund-2.gurobi-log.txt"
Gurobi Optimizer version 10.0.1 build v10.0.1rc0 (win64)

CPU model: 11th Gen Intel(R) Core(TM) i7-1180G7 @ 1.30GHz, instruction set [SSE2|AVX|AVX2|AVX512]
Thread count: 4 physical cores, 8 logical processors, using up to 1 threads

Optimize a model with 108 rows, 707 columns and 1414 nonzeros
Model fingerprint: 0x8fdd96e9
Coefficient statistics:
  Matrix range     [1e+00, 1e+00]
  Objective range  [1e+00, 6e+00]
  Bounds range     [1e+00, 2e+00]
  RHS range        [1e+00, 3e+01]
Iteration    Objective       Primal Inf.    Dual Inf.      Time
       0    0.0000000e+00   4.000000e+00   0.000000e+00      0s
       2    0.0000000e+00   0.000000e+00   0.000000e+00      0s

Solved in 2 iterations and 0.02 seconds (0.00 work units)
Optimal objective  0.000000000e+00

Statistics for modelfacility_loc:
  Linear constraint matrix    : 108 Constrs, 707 Vars, 1414 NZs
  Matrix coefficient range    : [ 1, 1 ]
  Objective coefficient range : [ 1, 6 ]
  Variable bound range        : [ 1, 2 ]
  RHS coefficient range       : [ 1, 28 ]
Runtime: 0.026000022888183594

Gurobi 10.0.1 (win64) logging started Wed May  3 14:26:14 2023

Set parameter LogFile to value "C:\Users\tim87\Desktop\cornell\spring23\Discrete Optimization\final\Capacity-expansion-in-the-college-admission-problem\Experiments_n1=100\m.facility_loc_st100un7fund-2.gurobi-log.txt"
Gurobi Optimizer version 10.0.1 build v10.0.1rc0 (win64)

CPU model: 11th Gen Intel(R) Core(TM) i7-1180G7 @ 1.30GHz, instruction set [SSE2|AVX|AVX2|AVX512]
Thread count: 4 physical cores, 8 logical processors, using up to 1 threads

Optimize a model with 108 rows, 707 columns and 1414 nonzeros
Model fingerprint: 0x18f2cbf4
Coefficient statistics:
  Matrix range     [1e+00, 1e+00]
  Objective range  [1e+00, 6e+00]
  Bounds range     [1e+00, 2e+00]
  RHS range        [1e-01, 2e+00]
Iteration    Objective       Primal Inf.    Dual Inf.      Time
       0    0.0000000e+00   1.125800e+02   0.000000e+00      0s

Solved in 6 iterations and 0.01 seconds (0.00 work units)
Infeasible model

Statistics for modelfacility_loc:
  Linear constraint matrix    : 108 Constrs, 707 Vars, 1414 NZs
  Matrix coefficient range    : [ 1, 1 ]
  Objective coefficient range : [ 1, 6 ]
  Variable bound range        : [ 1, 2 ]
  RHS coefficient range       : [ 0.14, 2 ]

Gurobi 10.0.1 (win64) logging started Wed May  3 14:26:46 2023

Set parameter LogFile to value "C:\Users\tim87\Desktop\cornell\spring23\Discrete Optimization\final\Capacity-expansion-in-the-college-admission-problem\Experiments_n1=100\m.facility_loc_st100un7fund-2.gurobi-log.txt"
Gurobi Optimizer version 10.0.1 build v10.0.1rc0 (win64)

CPU model: 11th Gen Intel(R) Core(TM) i7-1180G7 @ 1.30GHz, instruction set [SSE2|AVX|AVX2|AVX512]
Thread count: 4 physical cores, 8 logical processors, using up to 1 threads

Optimize a model with 108 rows, 707 columns and 1414 nonzeros
Model fingerprint: 0x00ad3547
Coefficient statistics:
  Matrix range     [1e+00, 1e+00]
  Objective range  [1e+00, 6e+00]
  Bounds range     [1e+00, 2e+00]
  RHS range        [1e+00, 3e+01]
Iteration    Objective       Primal Inf.    Dual Inf.      Time
       0    0.0000000e+00   4.360000e+00   0.000000e+00      0s
       2    3.6000000e-01   0.000000e+00   0.000000e+00      0s

Solved in 2 iterations and 0.00 seconds (0.00 work units)
Optimal objective  3.600000000e-01

Statistics for modelfacility_loc:
  Linear constraint matrix    : 108 Constrs, 707 Vars, 1414 NZs
  Matrix coefficient range    : [ 1, 1 ]
  Objective coefficient range : [ 1, 6 ]
  Variable bound range        : [ 1, 2 ]
  RHS coefficient range       : [ 1, 27.72 ]
Runtime: 0.003999948501586914
